
nNurses = 226;
hours = 85;
demand = [0 1 41 18 6 44 45 39 27 2 11 6 15 15 43 39 44 45 46 21 56 51 21 15 37 39 28 11 51 26 39 15 38 52 28 29 22 41 9 39 45 3 55 5 14 31 54 18 5 12 14 45 54 37 24 19 15 3 7 3 35 17 45 0 36 2 14 1 2 14 42 49 16 22 12 46 36 41 35 11 50 2 48 43 56];
minHours = 30;
maxHours = 45;
maxConsec = 24;
maxPresence = 84;